(set-info :source  loris-7.ddns.comp.nus.edu.sg/~project/hip/) 
;Variables declarations
(declare-fun q_3347 () Int)
(declare-fun Anon_3346 () Int)
(declare-fun Anon_3331 () Int)
(declare-fun n () Int)
(declare-fun v_bool_295_1745_primed () Int)
(declare-fun ys_3338 () Int)
(declare-fun ys () Int)
(declare-fun xs () Int)
(declare-fun next_299_3337 () Int)
(declare-fun q_3332 () Int)
(declare-fun m () Int)
(declare-fun xs_3339 () Int)
(declare-fun flted_14_3330 () Int)
(declare-fun xs_primed () Int)
(declare-fun n_3340 () Int)
(declare-fun m_3341 () Int)
(declare-fun flted_191_3355 () Int)
(declare-fun ys_primed () Int)
;Relations declarations
;Axioms assertions
;Antecedent
(assert (= (+ m 1) m_3341))
(assert (= q_3347 ys_3338))
(assert (= Anon_3346 Anon_3331))
(assert (= (+ flted_14_3330 1) n))
(assert (> v_bool_295_1745_primed 0))
(assert (= ys_3338 ys))
(assert (= xs_3339 xs))
(assert (= next_299_3337 q_3332))
(assert (= n_3340 flted_14_3330))
(assert (<= 0 m))
(assert (> xs_3339 0))
(assert (<= 0 flted_14_3330))
(assert (= flted_191_3355 (+ m_3341 n_3340)))
(assert (< xs_primed 1))
(assert (<= 0 n_3340))
(assert (<= 0 m_3341))
(assert (or (and (< ys_primed 1) (= flted_191_3355 0)) (and (<= 1 flted_191_3355) (> ys_primed 0))))
;Negation of Consequence
(assert (not false))
(check-sat)